sifdecoder -A pc64.lnx.gfo -st   A5NSDSSL

 Problem name: A5NSDSSL

 Double precision version will be formed

 The objective function uses 2 linear groups
 
 There are 20004 linear equality constraints
 
 There are 15004 free variables
 There are 10000 variables bounded only from below 
 There are 35008 fixed variables
 
 
 File successfully decoded
 CUTEST: tools (double precision version) compiled successfully
 CUTEst: ipopt (double precision version) compiled successfully

******************************************************************************
This program contains Ipopt, a library for large-scale nonlinear optimization.
 Ipopt is released as open source code under the Eclipse Public License (EPL).
         For more information visit http://projects.coin-or.org/Ipopt
******************************************************************************

This is Ipopt version trunk, running with linear solver ma57.

Number of nonzeros in equality constraint Jacobian...:    78027
Number of nonzeros in inequality constraint Jacobian.:        0
Number of nonzeros in Lagrangian Hessian.............:    30004

Total number of variables............................:    25004
                     variables with only lower bounds:    10000
                variables with lower and upper bounds:        0
                     variables with only upper bounds:        0
Total number of equality constraints.................:    20004
Total number of inequality constraints...............:        0
        inequality constraints with only lower bounds:        0
   inequality constraints with lower and upper bounds:        0
        inequality constraints with only upper bounds:        0

iter    objective    inf_pr   inf_du lg(mu)  ||d||  lg(rg) alpha_du alpha_pr  ls
   0  4.9999900e-01 6.35e+02 6.25e-01  -1.0 0.00e+00    -  0.00e+00 0.00e+00   0
   1  5.0739246e-01 6.34e+02 1.09e+00  -1.0 8.87e+01    -  1.00e-03 2.00e-03h  1
   2  5.6127029e-01 6.33e+02 1.08e+00  -1.0 5.74e+01    -  1.75e-03 1.73e-03f  1
   3  6.4374819e-01 6.31e+02 1.08e+00  -1.0 3.15e+01    -  1.90e-03 1.89e-03f  1
   4  7.5235447e-01 6.30e+02 1.08e+00  -1.0 2.02e+01    -  1.90e-03 2.21e-03f  1
   5  8.8654836e-01 6.28e+02 1.08e+00  -1.0 5.26e+01    -  2.67e-03 2.55e-03f  1
   6  1.0592342e+00 6.27e+02 1.07e+00  -1.0 3.90e+01    -  2.94e-03 3.08e-03f  1
   7  1.3296088e+00 6.24e+02 1.47e+00  -1.0 3.38e+01    -  3.18e-03 4.51e-03f  1
   8  1.7206342e+00 6.20e+02 1.47e+00  -1.0 2.98e+01    -  5.62e-03 6.04e-03f  1
   9  2.3358121e+00 6.15e+02 1.68e+00  -1.0 2.86e+01    -  6.51e-03 8.68e-03f  1
iter    objective    inf_pr   inf_du lg(mu)  ||d||  lg(rg) alpha_du alpha_pr  ls
  10  3.4106818e+00 6.06e+02 3.90e+00  -1.0 2.09e+01    -  8.08e-03 1.36e-02f  1
  11  5.2802208e+00 5.94e+02 3.72e+00  -1.0 1.26e+01    -  1.45e-02 2.06e-02f  1
  12  1.9007864e+01 5.31e+02 9.80e+00  -1.0 2.10e+01    -  2.42e-02 1.05e-01f  1
  13  2.3133461e+02 1.44e+02 7.05e+00  -1.0 1.63e+01    -  1.62e-01 7.29e-01f  1
  14  2.2956828e+02 1.24e+02 3.18e+01  -1.0 2.40e+01    -  6.62e-01 1.42e-01f  1
  15  2.9470806e+02 5.34e+01 8.42e+00  -1.0 1.27e+01    -  4.85e-01 5.68e-01f  1
  16  3.2634848e+02 3.72e+01 9.78e+01  -1.0 2.08e+01    -  1.43e-01 3.03e-01f  1
  17  3.9362800e+02 9.45e+00 2.28e+01  -1.0 5.52e+00    -  6.45e-01 7.46e-01h  1
  18  4.0440481e+02 6.11e+00 1.41e+02  -1.0 6.98e+01    -  5.02e-01 3.53e-01f  1
  19  4.0542391e+02 5.80e+00 2.94e+03  -1.0 1.19e+02    -  4.72e-01 5.03e-02f  1
iter    objective    inf_pr   inf_du lg(mu)  ||d||  lg(rg) alpha_du alpha_pr  ls
  20  4.0748665e+02 5.16e+00 7.55e+02  -1.0 1.28e+02    -  2.33e-01 1.11e-01f  1
  21  4.1917806e+02 1.54e+00 3.48e+02  -1.0 8.14e+01    -  5.88e-01 7.01e-01h  1
  22  4.1668259e+02 7.82e-01 1.41e+03  -1.0 2.89e+02    -  3.09e-01 4.93e-01f  1
  23  4.2085488e+02 4.25e-01 2.36e+04  -1.0 9.25e+01    -  7.20e-02 4.56e-01h  1
  24  4.2234162e+02 2.89e-01 7.61e+04  -1.0 6.93e+01    -  5.24e-01 3.21e-01h  1
  25  4.2401005e+02 1.40e-01 1.28e+05  -1.0 1.47e+02    -  7.52e-01 5.15e-01h  1
  26  4.2512689e+02 4.65e-02 4.34e+06  -1.0 6.10e+02    -  4.89e-02 6.68e-01f  1
  27  4.2516382e+02 4.19e-02 3.92e+06  -1.0 1.49e+00  -4.0 2.16e-02 9.73e-02f  3
  28  4.2529101e+02 2.62e-02 2.51e+06  -1.0 4.44e+00  -4.5 1.00e+00 3.75e-01h  1
Reallocating memory for MA57: lfact (1116924)
  29  4.2537820e+02 1.82e-02 1.10e+06  -1.0 5.78e+02    -  1.30e-01 3.05e-01f  2
Reallocating memory for MA57: lfact (1255065)
iter    objective    inf_pr   inf_du lg(mu)  ||d||  lg(rg) alpha_du alpha_pr  ls
  30  4.2547907e+02 5.85e-03 4.58e+05  -1.0 6.64e+02    -  9.92e-01 6.79e-01h  1
Reallocating memory for MA57: lfact (2863079)
  31  4.2556668e+02 2.57e-03 5.18e+06  -1.0 4.85e+04    -  7.89e-02 5.61e-01f  1
Reallocating memory for MA57: lfact (4066489)
  32  4.2575711e+02 2.04e-03 4.42e+06  -1.0 4.12e+04    -  5.00e-01 2.04e-01f  2
  33  4.2591923e+02 1.55e-03 4.89e+06  -1.0 5.54e+04    -  1.00e+00 2.41e-01f  3
  34  4.2606138e+02 1.16e-03 5.14e+06  -1.0 9.08e+04    -  9.39e-01 2.50e-01f  3
  35  4.2549486e+02 4.23e-09 1.00e-06  -1.0 1.40e+05    -  1.00e+00 1.00e+00h  1
  36  6.4813893e+01 3.27e-09 1.67e+01  -5.7 1.31e+02    -  9.57e-01 9.57e-01f  1
  37  1.3666059e+01 1.85e-09 5.25e+03  -5.7 3.92e+03    -  9.49e-01 9.66e-01f  1
  38  2.9531647e+00 4.70e-09 3.94e+03  -5.7 1.19e+00  -5.0 7.35e-01 9.89e-01f  1
  39  2.6527465e+00 2.82e-07 3.82e+03  -5.7 3.62e-01  -5.4 2.61e-02 1.00e+00F  1
iter    objective    inf_pr   inf_du lg(mu)  ||d||  lg(rg) alpha_du alpha_pr  ls
  40  3.7786019e+00 2.89e-07 3.37e+03  -5.7 7.37e-01  -5.9 1.20e-01 1.20e-01s 22
  41  5.2749331e+00 2.96e-07 3.10e+03  -5.7 3.03e+00  -6.4 7.99e-02 7.99e-02s 22
  42  7.2109966e+00 3.09e-07 2.87e+03  -5.7 9.41e+00  -6.9 7.46e-02 7.46e-02s 22
Reallocating memory for MA57: lfact (6753507)
  43  6.7849218e+00 2.90e-07 2.69e+03  -5.7 1.24e-01  -7.3 6.04e-02 6.04e-02s 22
Reallocating memory for MA57: lfact (9098191)
  44  6.7760710e+00 2.90e-07 2.69e+03  -5.7 2.84e+01  -7.8 1.31e-03 1.31e-03s 22
Reallocating memory for MA57: lfact (10773286)
  45  9.0203811e+00 3.08e-07 2.50e+03  -5.7 2.61e+02  -8.3 6.88e-02 6.88e-02s 22
Reallocating memory for MA57: lfact (11616874)
  46  8.7959157e+00 3.01e-07 2.44e+03  -5.7 6.81e+02  -8.8 2.46e-02 2.46e-02s 22
  47  1.0691022e+01 3.54e-07 2.42e+03  -5.7 1.50e+04  -9.2 1.03e-02 1.03e-02s 22
Reallocating memory for MA57: lfact (12381322)
  48  1.3758606e+01 3.84e-07 2.26e+03  -5.7 1.16e+03  -8.8 6.47e-02 6.47e-02s 22
  49  1.8173560e+01 5.35e-07 2.25e+03  -5.7 1.40e+05  -9.3 3.12e-03 3.12e-03s 22
iter    objective    inf_pr   inf_du lg(mu)  ||d||  lg(rg) alpha_du alpha_pr  ls
  50  2.1551641e+01 5.71e-07 2.11e+03  -5.7 1.44e+03  -8.9 6.24e-02 6.24e-02s 22
  51r 2.1551641e+01 5.71e-07 1.00e+03  -5.7 0.00e+00  -8.4 0.00e+00 0.00e+00R  1
  52r 1.1829119e+01 2.73e-07 1.72e+03  -5.7 1.63e-01    -  6.52e-02 3.60e-03f  1
  53r 2.9045547e+00 6.28e-08 1.67e+03  -5.7 1.70e-01    -  8.75e-02 6.26e-02f  1
  54r 1.3594404e+00 2.31e-08 1.17e+03  -5.7 1.76e-01    -  3.14e-01 1.09e-01f  1
  55  1.3581002e+00 2.31e-08 2.09e+05  -5.7 2.79e+01    -  4.06e-03 4.46e-05f  1
  56  8.1186586e-01 8.83e-09 5.31e+05  -5.7 7.24e-02    -  9.99e-01 6.18e-01f  1
  57  2.6387778e-01 2.70e-09 1.67e+05  -5.7 3.26e+01    -  8.85e-01 6.95e-01f  1
  58  5.0269739e-02 1.37e-09 3.27e+04  -5.7 2.49e-02  -3.5 1.00e+00 8.27e-01f  1
  59  4.1663198e-02 6.23e-10 2.89e+04  -5.7 1.44e+01  -4.0 1.10e-01 1.18e-01f  1
iter    objective    inf_pr   inf_du lg(mu)  ||d||  lg(rg) alpha_du alpha_pr  ls
  60  5.3966961e-03 7.01e-10 7.27e+03  -5.7 3.00e-01  -3.6 8.84e-01 7.29e-01f  1
  61 -5.6774168e-03 2.25e-09 5.89e+03  -5.7 3.30e-01  -4.0 1.00e+00 7.64e-01f  1
  62 -7.5128328e-03 2.71e-09 1.10e+04  -5.7 1.12e+00  -4.5 6.36e-01 4.78e-01f  1
  63 -9.3753070e-03 2.19e-09 2.40e-06  -5.7 2.92e-02  -4.1 1.00e+00 1.00e+00f  1
  64 -1.5940460e-02 1.08e-09 4.38e+04  -8.6 8.97e-03  -4.6 1.00e+00 8.40e-01f  1
  65 -1.7178177e-02 1.18e-09 2.30e+03  -8.6 4.83e-02  -5.0 9.77e-01 9.53e-01f  1
  66 -1.7243619e-02 2.92e-09 3.03e+01  -8.6 1.88e-02  -5.5 9.99e-01 9.88e-01f  1
  67 -1.7245268e-02 1.19e-09 2.06e-08  -8.6 2.03e-02  -6.0 1.00e+00 1.00e+00f  1

Number of Iterations....: 67

                                   (scaled)                 (unscaled)
Objective...............:  -1.7245267753842903e-02   -1.7245267753842903e-02
Dual infeasibility......:   2.0550361578512979e-08    2.0550361578512979e-08
Constraint violation....:   1.1861961274339805e-09    1.1861961274339805e-09
Complementarity.........:   1.2534588443142787e-08    1.2534588443142787e-08
Overall NLP error.......:   7.2630943369717289e-09    2.0550361578512979e-08


Number of objective function evaluations             = 102
Number of objective gradient evaluations             = 65
Number of equality constraint evaluations            = 102
Number of inequality constraint evaluations          = 0
Number of equality constraint Jacobian evaluations   = 68
Number of inequality constraint Jacobian evaluations = 0
Number of Lagrangian Hessian evaluations             = 67
Total CPU secs in IPOPT (w/o function evaluations)   =     27.845
Total CPU secs in NLP function evaluations           =      3.799

EXIT: Optimal Solution Found.

************************ CUTEst statistics ************************


 Package used            :  IPOPT
 Problem                 :  A5NSDSSL  
 # variables             =           60012
 # constraints           =           20004
 # objective functions   =        0.1680000E+03
 # objective gradients   =        0.6600000E+02
 # objective Hessians    =        0.6700000E+02
 # Hessian-vector prdct  =        0.0000000E+00
 # constraints functions =        0.1720000E+03
 # constraints gradients =        0.7000000E+02
 # constraints Hessians  =        0.6700000E+02
 Exit code               =               0
 Final f                 =       -1.7245267753842903D-02
 Bounds feasibility      =        9.9999985369286957D-09
 Set up time             =            0.78 seconds
 Solve time              =           60.33 seconds


******************************************************************

